0
0
5
5
8
8
8
13
13
13
16
16
18
21
21
23
23
23
26
26
27
31
31
31
33
33
33
33
37
37
37
39
39
39
39
39
40
42
42
42
44
44
44
44
44
45
45
45
47
47
47
47
47
47
47
47
49
49
49
49
49
49
49
49
49
51
51
51
51
51
51
51
51
51
51
51
51
51
51
51
51
51
51
51
51
51
51
51
51
51
51
51
51
51
51
51
51
51
51
51
